Max: xS1 + xS2   ;



xSD    = xD2 + xD3   ;

xS2 + xD2    = x23 + x24   ;

xD3 + x23    = x34 + x35   ;

x24 + x34    = x45 + x46   ;

x35 + x45    = x56 + x57   ;

x46 + x56    = x67 + x68   ;

x57 + x67    = x78 + x79   ;

x68 + x78    = x89 + x8DS   ;

x79 + x89    = x9DS + x9DD   ;

x8DS + x9DS    = xDSDD + xDSD2   ;

x9DD + xDSDD    = xDDD2 + xDDD3   ;

xDSD2 + xDDD2    = xD2D3 + xD2D4   ;

xDDD3 + xD2D3    = xD3D4 + xD3D5   ;

xD2D4 + xD3D4    = xD4D5 + xD4D6   ;

xD3D5 + xD4D5    = xD5D6 + xD5D7   ;

xD4D6 + xD5D6    = xD6D7 + xD6D8   ;

xD5D7 + xD6D7    = xD7D8 + xD7D9   ;

xD6D8 + xD7D8    = xD8D9 + xD82S   ;

xD7D9 + xD8D9    = xD92S + xD92D   ;

xD82S + xD92S    = x2S2D + x2S22   ;

xD92D + x2S2D    = x2D22 + x2D23   ;

x2S22 + x2D22    = x2223 + x2224   ;

x2D23 + x2223    = x2324 + x2325   ;

x2224 + x2324    = x2425 + x2426   ;

x2325 + x2425    = x2526 + x2527   ;

x2426 + x2526    = x2627 + x2628   ;

x2527 + x2627    = x2728 + x2729   ;

x2628 + x2728    = x2829 + x283S   ;

x2729 + x2829    = x293S + x293D   ;

x283S + x293S    = x3S3D + x3S32   ;

x293D + x3S3D    = x3D32 + x3D33   ;

x3S32 + x3D32    = x3233 + x3234   ;

x3D33 + x3233    = x3334 + x3335   ;

x3234 + x3334    = x3435 + x3436   ;

x3335 + x3435    = x3536 + x3537   ;

x3436 + x3536    = x3637 + x3638   ;

x3537 + x3637    = x3738 + x3739   ;

x3638 + x3738    = x3839 + x384S   ;

x3739 + x3839    = x394S + x394D   ;

x384S + x394S    = x4S4D + x4S42   ;

x394D + x4S4D    = x4D42 + x4D43   ;

x4S42 + x4D42    = x4243 + x4244   ;

x4D43 + x4243    = x4344 + x4345   ;

x4244 + x4344    = x4445 + x4446   ;

x4345 + x4445    = x4546 + x4547   ;

x4446 + x4546    = x4647 + x4648   ;

x4547 + x4647    = x4748 + x4749   ;

x4648 + x4748    = x4849 + x485S   ;

x4749 + x4849    = x495S + x495D   ;

x485S + x495S    = x5S5D + x5S52   ;

x495D + x5S5D    = x5D52 + x5D53   ;

x5S52 + x5D52    = x5253 + x5254   ;

x5D53 + x5253    = x5354 + x5355   ;

x5254 + x5354    = x5455 + x5456   ;

x5355 + x5455    = x5556 + x5557   ;

x5456 + x5556    = x5657 + x5658   ;

x5557 + x5657    = x5758 + x5759   ;

x5658 + x5758    = x5859 + x586S   ;

x5759 + x5859    = x596S + x596D   ;

x586S + x596S    = x6S6D + x6S62   ;

x596D + x6S6D    = x6D62 + x6D63   ;

x6S62 + x6D62    = x6263 + x6264   ;

x6D63 + x6263    = x6364 + x6365   ;

x6264 + x6364    = x6465 + x6466   ;

x6365 + x6465    = x6566 + x6567   ;

x6466 + x6566    = x6667 + x6668   ;

x6567 + x6667    = x6768 + x6769   ;

x6668 + x6768    = x6869 + x687S   ;

x6769 + x6869    = x697S + x697D   ;

x687S + x697S    = x7S7D + x7S72   ;

x697D + x7S7D    = x7D72 + x7D73   ;

x7S72 + x7D72    = x7273 + x7274   ;

x7D73 + x7273    = x7374 + x7375   ;

x7274 + x7374    = x7475 + x7476   ;

x7375 + x7475    = x7576 + x7577   ;

x7476 + x7576    = x7677 + x7678   ;

x7577 + x7677    = x7778 + x7779   ;

x7678 + x7778    = x7879 + x788S   ;

x7779 + x7879    = x798S + x798D   ;

x788S + x798S    = x8S8D + x8S82   ;

x798D + x8S8D    = x8D82 + x8D83   ;

x8S82 + x8D82    = x8283 + x8284   ;

x8D83 + x8283    = x8384 + x8385   ;

x8284 + x8384    = x8485 + x8486   ;

x8385 + x8485    = x8586 + x8587   ;

x8486 + x8586    = x8687 + x8688   ;

x8587 + x8687    = x8788 + x8789   ;

x8688 + x8788    = x8889 + x889S   ;

x8789 + x8889    = x899S + x899D   ;

x889S + x899S    = x9S9D + x9S92   ;

x899D + x9S9D    = x9D92 + x9D93   ;

x9S92 + x9D92    = x9293 + x9294   ;

x9D93 + x9293    = x9394 + x9395   ;

x9294 + x9394    = x9495 + x9496   ;

x9395 + x9495    = x9596 + x9597   ;

x9496 + x9596    = x9697 + x9698   ;

x9597 + x9697    = x9798 + x9799   ;

x9698 + x9798    = x9899 + x98DSS   ;

x9799 + x9899    = x99DSS + x99DSD   ;

x98DSS + x99DSS    = xDSSDSD + xDSSDS2   ;

x99DSD + xDSSDSD    = xDSDDS2 + xDSDDS3   ;

xDSSDS2 + xDSDDS2    = xDS2DS3 + xDS2DS4   ;

xDSDDS3 + xDS2DS3    = xDS3DS4 + xDS3DS5   ;

xDS2DS4 + xDS3DS4    = xDS4DS5 + xDS4DS6   ;

xDS3DS5 + xDS4DS5    = xDS5DS6 + xDS5DS7   ;

xDS4DS6 + xDS5DS6    = xDS6DS7 + xDS6DS8   ;

xDS5DS7 + xDS6DS7    = xDS7DS8 + xDS7DS9   ;

xDS6DS8 + xDS7DS8    = xDS8DS9 + xDS8DDS   ;

xDS7DS9 + xDS8DS9    = xDS9DDS + xDS9DDD   ;

xDS8DDS + xDS9DDS    = xDDSDDD + xDDSDD2   ;

xDS9DDD + xDDSDDD    = xDDDDD2 + xDDDDD3   ;

xDDSDD2 + xDDDDD2    = xDD2DD3 + xDD2DD4   ;

xDDDDD3 + xDD2DD3    = xDD3DD4 + xDD3DD5   ;

xDD2DD4 + xDD3DD4    = xDD4DD5 + xDD4DD6   ;

xDD3DD5 + xDD4DD5    = xDD5DD6 + xDD5DD7   ;

xDD4DD6 + xDD5DD6    = xDD6DD7 + xDD6DD8   ;

xDD5DD7 + xDD6DD7    = xDD7DD8 + xDD7DD9   ;

xDD6DD8 + xDD7DD8    = xDD8DD9 + xDD8D2S   ;

xDD7DD9 + xDD8DD9    = xDD9D2S + xDD9D2D   ;

xDD8D2S + xDD9D2S    = xD2SD2D + xD2SD22   ;

xDD9D2D + xD2SD2D    = xD2DD22 + xD2DD23   ;

xD2SD22 + xD2DD22    = xD22D23 + xD22D24 ;



xS1 <= 42;
xS2 <= 468;
x12 <= 335;
x13 <= 1;
x23 <= 170;
x24 <= 225;
x34 <= 479;
x35 <= 359;
x45 <= 463;
x46 <= 465;
x56 <= 206;
x57 <= 146;
x67 <= 282;
x68 <= 328;
x78 <= 462;
x79 <= 492;
x89 <= 496;
x810 <= 443;
x910 <= 328;
x911 <= 437;
x1011 <= 392;
x1012 <= 105;
x1112 <= 403;
x1113 <= 154;
x1213 <= 293;
x1214 <= 383;
x1314 <= 422;
x1315 <= 217;
x1415 <= 219;
x1416 <= 396;
x1516 <= 448;
x1517 <= 227;
x1617 <= 272;
x1618 <= 39;
x1718 <= 370;
x1719 <= 413;
x1819 <= 168;
x1820 <= 300;
x1920 <= 36;
x1921 <= 395;
x2021 <= 204;
x2022 <= 312;
x2122 <= 323;
x2123 <= 334;
x2223 <= 174;
x2224 <= 165;
x2324 <= 142;
x2325 <= 212;
x2425 <= 254;
x2426 <= 369;
x2526 <= 48;
x2527 <= 145;
x2627 <= 163;
x2628 <= 258;
x2728 <= 38;
x2729 <= 360;
x2829 <= 224;
x2830 <= 242;
x2930 <= 30;
x2931 <= 279;
x3031 <= 317;
x3032 <= 36;
x3132 <= 191;
x3133 <= 343;
x3233 <= 289;
x3234 <= 107;
x3334 <= 41;
x3335 <= 443;
x3435 <= 265;
x3436 <= 149;
x3536 <= 447;
x3537 <= 306;
x3637 <= 391;
x3638 <= 230;
x3738 <= 371;
x3739 <= 351;
x3839 <= 7;
x3840 <= 102;
x3940 <= 394;
x3941 <= 49;
x4041 <= 130;
x4042 <= 124;
x4142 <= 85;
x4143 <= 455;
x4243 <= 257;
x4244 <= 341;
x4344 <= 467;
x4345 <= 377;
x4445 <= 432;
x4446 <= 309;
x4546 <= 445;
x4547 <= 440;
x4647 <= 127;
x4648 <= 324;
x4748 <= 38;
x4749 <= 39;
x4849 <= 119;
x4850 <= 83;
x4950 <= 430;
x4951 <= 42;
x5051 <= 334;
x5052 <= 116;
x5152 <= 140;
x5153 <= 159;
x5253 <= 205;
x5254 <= 431;
x5354 <= 478;
x5355 <= 307;
x5455 <= 174;
x5456 <= 387;
x5556 <= 22;
x5557 <= 246;
x5657 <= 425;
x5658 <= 73;
x5758 <= 271;
x5759 <= 330;
x5859 <= 278;
x5860 <= 74;
x5960 <= 98;
x5961 <= 13;
x6061 <= 487;
x6062 <= 291;
x6162 <= 162;
x6163 <= 137;
x6263 <= 356;
x6264 <= 268;
x6364 <= 156;
x6365 <= 75;
x6465 <= 32;
x6466 <= 53;
x6566 <= 351;
x6567 <= 151;
x6667 <= 442;
x6668 <= 225;
x6768 <= 467;
x6769 <= 431;
x6869 <= 108;
x6870 <= 192;
x6970 <= 8;
x6971 <= 338;
x7071 <= 458;
x7072 <= 288;
x7172 <= 254;
x7173 <= 384;
x7273 <= 446;
x7274 <= 410;
x7374 <= 210;
x7375 <= 259;
x7475 <= 222;
x7476 <= 89;
x7576 <= 423;
x7577 <= 447;
x7677 <= 7;
x7678 <= 31;
x7778 <= 414;
x7779 <= 169;
x7879 <= 401;
x7880 <= 92;
x7980 <= 263;
x7981 <= 156;
x8081 <= 411;
x8082 <= 360;
x8182 <= 125;
x8183 <= 38;
x8283 <= 49;
x8284 <= 484;
x8384 <= 96;
x8385 <= 42;
x8485 <= 103;
x8486 <= 351;
x8586 <= 292;
x8587 <= 337;
x8687 <= 375;
x8688 <= 21;
x8788 <= 97;
x8789 <= 22;
x8889 <= 349;
x8890 <= 200;
x8990 <= 169;
x8991 <= 485;
x9091 <= 282;
x9092 <= 235;
x9192 <= 54;
x9193 <= 500;
x9293 <= 419;
x9294 <= 439;
x9394 <= 401;
x9395 <= 289;
x9495 <= 128;
x9496 <= 468;
x9596 <= 229;
x9597 <= 394;
x9697 <= 149;
x9698 <= 484;
x9798 <= 308;
x9799 <= 422;
x9899 <= 311;
x98100 <= 118;
x99100 <= 314;
x99101 <= 15;
x100101 <= 310;
x100102 <= 117;
x101102 <= 436;
x101103 <= 452;
x102103 <= 101;
x102104 <= 250;
x103104 <= 20;
x103105 <= 57;
x104105 <= 299;
x104106 <= 304;
x105106 <= 225;
x105107 <= 9;
x106107 <= 345;
x106108 <= 110;
x107108 <= 490;
x107109 <= 203;
x108109 <= 196;
x108110 <= 486;
x109110 <= 94;
x109111 <= 344;
x110111 <= 24;
x110112 <= 88;
x111112 <= 315;
x111113 <= 4;
x112113 <= 449;
x112114 <= 201;
x113114 <= 459;
x113115 <= 119;
x114115 <= 81;
x114116 <= 297;
x115116 <= 299;
x115117 <= 282;
x116117 <= 90;
x116118 <= 299;
x117118 <= 10;
x117119 <= 158;
x118119 <= 473;
x118120 <= 123;
x119120 <= 39;
x119121 <= 293;
x120121 <= 39;
x120122 <= 180;
x121122 <= 191;
x122124 <= 192;
x121D <= 158;
x122D <= 459;
